data/lp_files/pEFS/37_7.lp
\ Model foo
\ LP format - for model browsing. Use MPS format to capture full model detail.
Minimize
  z
Subject To
 allocateEach[1]: x[1,1] + x[2,1] = 1
 allocateEach[2]: x[1,2] + x[2,2] = 1
 allocateEach[3]: x[1,3] + x[2,3] = 1
 allocateEach[4]: x[1,4] + x[2,4] = 1
 allocateEach[5]: x[1,5] + x[2,5] = 1
 allocateEach[6]: x[1,6] + x[2,6] = 1
 allocateEach[7]: x[1,7] + x[2,7] = 1
 allocateEach[8]: x[1,8] + x[2,8] = 1
 allocateEach[9]: x[1,9] + x[2,9] = 1
 allocateEach[10]: x[1,10] + x[2,10] = 1
 allocateEach[11]: x[1,11] + x[2,11] = 1
 allocateEach[12]: x[1,12] + x[2,12] = 1
 allocateEach[13]: x[1,13] + x[2,13] = 1
 allocateEach[14]: x[1,14] + x[2,14] = 1
 allocateEach[15]: x[1,15] + x[2,15] = 1
 allocateEach[16]: x[1,16] + x[2,16] = 1
 allocateEach[17]: x[1,17] + x[2,17] = 1
 allocateAllCash: cashProportion[1] + cashProportion[2] = 1
 findWorstP[1,2]: z + 0.0609421658845756 cashProportion[1]
   - 0.0609421658845756 cashProportion[2] + 0.0251691145103297 x[1,1]
   + 0.0196030633595385 x[1,2] + 0.0730798139232535 x[1,3]
   + 0.0104617384768521 x[1,4] + 0.0376825725719625 x[1,5]
   + 0.1013265078107543 x[1,6] + 0.0819062709488695 x[1,7]
   + 8.3287626708919915e-04 x[1,8] + 0.00521055518313121 x[1,9]
   + 0.0230666097873118 x[1,10] + 0.0829727588518496 x[1,11]
   + 0.0720641111585106 x[1,12] + 0.0950697787799378 x[1,13]
   + 0.0959128120746745 x[1,14] + 0.0939931338493103 x[1,15]
   + 0.0796818818940825 x[1,16] + 0.0410242346679668 x[1,17]
   - 0.0251691145103297 x[2,1] - 0.0196030633595385 x[2,2]
   - 0.0730798139232535 x[2,3] - 0.0104617384768521 x[2,4]
   - 0.0376825725719625 x[2,5] - 0.1013265078107543 x[2,6]
   - 0.0819062709488695 x[2,7] - 8.3287626708919915e-04 x[2,8]
   - 0.00521055518313121 x[2,9] - 0.0230666097873118 x[2,10]
   - 0.0829727588518496 x[2,11] - 0.0720641111585106 x[2,12]
   - 0.0950697787799378 x[2,13] - 0.0959128120746745 x[2,14]
   - 0.0939931338493103 x[2,15] - 0.0796818818940825 x[2,16]
   - 0.0410242346679668 x[2,17] >= 0
 findWorstP[2,1]: z - 0.0686090655445273 cashProportion[1]
   + 0.0686090655445273 cashProportion[2] - 0.04935278781503 x[1,1]
   - 0.0912729268627362 x[1,2] - 0.0596555824909665 x[1,3]
   - 0.0471115583405754 x[1,4] - 0.0984768787449115 x[1,5]
   - 0.0393587339340438 x[1,6] - 0.0436010611535471 x[1,7]
   - 0.0693637652655171 x[1,8] - 0.0731372638704661 x[1,9]
   - 0.0503704889539405 x[1,10] - 0.1068586195856013 x[1,11]
   - 0.0225266431871198 x[1,12] - 0.048483739651466 x[1,13]
   - 0.0628916434158167 x[1,14] - 0.0236129533915748 x[1,15]
   - 0.0271577551113754 x[1,16] - 0.0181585326807849 x[1,17]
   + 0.04935278781503 x[2,1] + 0.0912729268627362 x[2,2]
   + 0.0596555824909665 x[2,3] + 0.0471115583405754 x[2,4]
   + 0.0984768787449115 x[2,5] + 0.0393587339340438 x[2,6]
   + 0.0436010611535471 x[2,7] + 0.0693637652655171 x[2,8]
   + 0.0731372638704661 x[2,9] + 0.0503704889539405 x[2,10]
   + 0.1068586195856013 x[2,11] + 0.0225266431871198 x[2,12]
   + 0.048483739651466 x[2,13] + 0.0628916434158167 x[2,14]
   + 0.0236129533915748 x[2,15] + 0.0271577551113754 x[2,16]
   + 0.0181585326807849 x[2,17] >= 0
Bounds
 z <= 1
 -infinity <= cashProportion[1] <= 1
 -infinity <= cashProportion[2] <= 1
Binaries
 x[1,1] x[1,2] x[1,3] x[1,4] x[1,5] x[1,6] x[1,7] x[1,8] x[1,9] x[1,10]
 x[1,11] x[1,12] x[1,13] x[1,14] x[1,15] x[1,16] x[1,17] x[2,1] x[2,2]
 x[2,3] x[2,4] x[2,5] x[2,6] x[2,7] x[2,8] x[2,9] x[2,10] x[2,11] x[2,12]
 x[2,13] x[2,14] x[2,15] x[2,16] x[2,17]
End
