data/mps_files/q3/37_7.mps
NAME foo
ROWS
 N  OBJ
 E  allocateEach[1]
 E  allocateEach[2]
 E  allocateEach[3]
 E  allocateEach[4]
 E  allocateEach[5]
 E  allocateEach[6]
 E  allocateEach[7]
 E  allocateEach[8]
 E  allocateEach[9]
 E  allocateEach[10]
 E  allocateEach[11]
 E  allocateEach[12]
 E  allocateEach[13]
 E  allocateEach[14]
 E  allocateEach[15]
 E  allocateEach[16]
 E  allocateEach[17]
 E  allocateAllCash
 G  findWorstP[1,2]
 G  findWorstP[2,1]
COLUMNS
    z         OBJ       1
    z         findWorstP[1,2]  1
    z         findWorstP[2,1]  1
    cashProportion[1]  allocateAllCash  1
    cashProportion[1]  findWorstP[1,2]  6.0942165884575551e-02
    cashProportion[1]  findWorstP[2,1]  -6.8609065544527309e-02
    cashProportion[2]  allocateAllCash  1
    cashProportion[2]  findWorstP[1,2]  -6.0942165884575551e-02
    cashProportion[2]  findWorstP[2,1]  6.8609065544527309e-02
    MARKER    'MARKER'                 'INTORG'
    x[1,1]    allocateEach[1]  1
    x[1,1]    findWorstP[1,2]  2.5169114510329698e-02
    x[1,1]    findWorstP[2,1]  -4.9352787815029962e-02
    x[1,2]    allocateEach[2]  1
    x[1,2]    findWorstP[1,2]  1.9603063359538465e-02
    x[1,2]    findWorstP[2,1]  -9.1272926862736151e-02
    x[1,3]    allocateEach[3]  1
    x[1,3]    findWorstP[1,2]  7.3079813923253509e-02
    x[1,3]    findWorstP[2,1]  -5.9655582490966488e-02
    x[1,4]    allocateEach[4]  1
    x[1,4]    findWorstP[1,2]  1.0461738476852134e-02
    x[1,4]    findWorstP[2,1]  -4.7111558340575406e-02
    x[1,5]    allocateEach[5]  1
    x[1,5]    findWorstP[1,2]  3.7682572571962544e-02
    x[1,5]    findWorstP[2,1]  -9.8476878744911511e-02
    x[1,6]    allocateEach[6]  1
    x[1,6]    findWorstP[1,2]  1.0132650781075427e-01
    x[1,6]    findWorstP[2,1]  -3.9358733934043828e-02
    x[1,7]    allocateEach[7]  1
    x[1,7]    findWorstP[1,2]  8.1906270948869528e-02
    x[1,7]    findWorstP[2,1]  -4.3601061153547095e-02
    x[1,8]    allocateEach[8]  1
    x[1,8]    findWorstP[1,2]  8.3287626708919915e-04
    x[1,8]    findWorstP[2,1]  -0.0693637652655171
    x[1,9]    allocateEach[9]  1
    x[1,9]    findWorstP[1,2]  5.2105551831312085e-03
    x[1,9]    findWorstP[2,1]  -0.0731372638704661
    x[1,10]   allocateEach[10]  1
    x[1,10]   findWorstP[1,2]  2.3066609787311843e-02
    x[1,10]   findWorstP[2,1]  -5.0370488953940459e-02
    x[1,11]   allocateEach[11]  1
    x[1,11]   findWorstP[1,2]  0.0829727588518496
    x[1,11]   findWorstP[2,1]  -1.0685861958560126e-01
    x[1,12]   allocateEach[12]  1
    x[1,12]   findWorstP[1,2]  7.2064111158510580e-02
    x[1,12]   findWorstP[2,1]  -2.2526643187119798e-02
    x[1,13]   allocateEach[13]  1
    x[1,13]   findWorstP[1,2]  9.5069778779937844e-02
    x[1,13]   findWorstP[2,1]  -4.8483739651465955e-02
    x[1,14]   allocateEach[14]  1
    x[1,14]   findWorstP[1,2]  9.5912812074674475e-02
    x[1,14]   findWorstP[2,1]  -0.0628916434158167
    x[1,15]   allocateEach[15]  1
    x[1,15]   findWorstP[1,2]  9.3993133849310337e-02
    x[1,15]   findWorstP[2,1]  -2.3612953391574810e-02
    x[1,16]   allocateEach[16]  1
    x[1,16]   findWorstP[1,2]  7.9681881894082512e-02
    x[1,16]   findWorstP[2,1]  -2.7157755111375387e-02
    x[1,17]   allocateEach[17]  1
    x[1,17]   findWorstP[1,2]  4.1024234667966765e-02
    x[1,17]   findWorstP[2,1]  -1.8158532680784892e-02
    x[2,1]    allocateEach[1]  1
    x[2,1]    findWorstP[1,2]  -2.5169114510329698e-02
    x[2,1]    findWorstP[2,1]  4.9352787815029962e-02
    x[2,2]    allocateEach[2]  1
    x[2,2]    findWorstP[1,2]  -1.9603063359538465e-02
    x[2,2]    findWorstP[2,1]  9.1272926862736151e-02
    x[2,3]    allocateEach[3]  1
    x[2,3]    findWorstP[1,2]  -7.3079813923253509e-02
    x[2,3]    findWorstP[2,1]  5.9655582490966488e-02
    x[2,4]    allocateEach[4]  1
    x[2,4]    findWorstP[1,2]  -1.0461738476852134e-02
    x[2,4]    findWorstP[2,1]  4.7111558340575406e-02
    x[2,5]    allocateEach[5]  1
    x[2,5]    findWorstP[1,2]  -3.7682572571962544e-02
    x[2,5]    findWorstP[2,1]  9.8476878744911511e-02
    x[2,6]    allocateEach[6]  1
    x[2,6]    findWorstP[1,2]  -1.0132650781075427e-01
    x[2,6]    findWorstP[2,1]  3.9358733934043828e-02
    x[2,7]    allocateEach[7]  1
    x[2,7]    findWorstP[1,2]  -8.1906270948869528e-02
    x[2,7]    findWorstP[2,1]  4.3601061153547095e-02
    x[2,8]    allocateEach[8]  1
    x[2,8]    findWorstP[1,2]  -8.3287626708919915e-04
    x[2,8]    findWorstP[2,1]  0.0693637652655171
    x[2,9]    allocateEach[9]  1
    x[2,9]    findWorstP[1,2]  -5.2105551831312085e-03
    x[2,9]    findWorstP[2,1]  0.0731372638704661
    x[2,10]   allocateEach[10]  1
    x[2,10]   findWorstP[1,2]  -2.3066609787311843e-02
    x[2,10]   findWorstP[2,1]  5.0370488953940459e-02
    x[2,11]   allocateEach[11]  1
    x[2,11]   findWorstP[1,2]  -0.0829727588518496
    x[2,11]   findWorstP[2,1]  1.0685861958560126e-01
    x[2,12]   allocateEach[12]  1
    x[2,12]   findWorstP[1,2]  -7.2064111158510580e-02
    x[2,12]   findWorstP[2,1]  2.2526643187119798e-02
    x[2,13]   allocateEach[13]  1
    x[2,13]   findWorstP[1,2]  -9.5069778779937844e-02
    x[2,13]   findWorstP[2,1]  4.8483739651465955e-02
    x[2,14]   allocateEach[14]  1
    x[2,14]   findWorstP[1,2]  -9.5912812074674475e-02
    x[2,14]   findWorstP[2,1]  0.0628916434158167
    x[2,15]   allocateEach[15]  1
    x[2,15]   findWorstP[1,2]  -9.3993133849310337e-02
    x[2,15]   findWorstP[2,1]  2.3612953391574810e-02
    x[2,16]   allocateEach[16]  1
    x[2,16]   findWorstP[1,2]  -7.9681881894082512e-02
    x[2,16]   findWorstP[2,1]  2.7157755111375387e-02
    x[2,17]   allocateEach[17]  1
    x[2,17]   findWorstP[1,2]  -4.1024234667966765e-02
    x[2,17]   findWorstP[2,1]  1.8158532680784892e-02
    MARKER    'MARKER'                 'INTEND'
RHS
    RHS1      allocateEach[1]  1
    RHS1      allocateEach[2]  1
    RHS1      allocateEach[3]  1
    RHS1      allocateEach[4]  1
    RHS1      allocateEach[5]  1
    RHS1      allocateEach[6]  1
    RHS1      allocateEach[7]  1
    RHS1      allocateEach[8]  1
    RHS1      allocateEach[9]  1
    RHS1      allocateEach[10]  1
    RHS1      allocateEach[11]  1
    RHS1      allocateEach[12]  1
    RHS1      allocateEach[13]  1
    RHS1      allocateEach[14]  1
    RHS1      allocateEach[15]  1
    RHS1      allocateEach[16]  1
    RHS1      allocateEach[17]  1
    RHS1      allocateAllCash  1
BOUNDS
 UP BND1      z         1
 MI BND1      cashProportion[1]
 UP BND1      cashProportion[1]  1
 MI BND1      cashProportion[2]
 UP BND1      cashProportion[2]  1
 BV BND1      x[1,1]  
 BV BND1      x[1,2]  
 BV BND1      x[1,3]  
 BV BND1      x[1,4]  
 BV BND1      x[1,5]  
 BV BND1      x[1,6]  
 BV BND1      x[1,7]  
 BV BND1      x[1,8]  
 BV BND1      x[1,9]  
 BV BND1      x[1,10] 
 BV BND1      x[1,11] 
 BV BND1      x[1,12] 
 BV BND1      x[1,13] 
 BV BND1      x[1,14] 
 BV BND1      x[1,15] 
 BV BND1      x[1,16] 
 BV BND1      x[1,17] 
 BV BND1      x[2,1]  
 BV BND1      x[2,2]  
 BV BND1      x[2,3]  
 BV BND1      x[2,4]  
 BV BND1      x[2,5]  
 BV BND1      x[2,6]  
 BV BND1      x[2,7]  
 BV BND1      x[2,8]  
 BV BND1      x[2,9]  
 BV BND1      x[2,10] 
 BV BND1      x[2,11] 
 BV BND1      x[2,12] 
 BV BND1      x[2,13] 
 BV BND1      x[2,14] 
 BV BND1      x[2,15] 
 BV BND1      x[2,16] 
 BV BND1      x[2,17] 
ENDATA
